1042.97 0
0 107 53 55 58 56 60 63 66 64 62 61 65 59 57 54 52 0
0 98 68 73 76 77 79 80 78 72 75 74 71 70 69 67 0
0 95 37 38 39 42 41 44 47 46 49 50 51 48 45 43 40 0
0 8 12 13 14 15 11 10 9 7 6 5 4 3 1 2 88 0
0 120 105 106 102 101 99 104 103 100 116 110 115 97 94 96 93 92 87 0
0 82 111 86 85 89 91 90 114 18 118 108 83 113 117 84 112 81 119 0
0 109 21 20 23 26 28 32 35 29 36 34 31 30 33 27 24 22 25 19 16 17 0
